problem_generation/data/GISP/train/er_n=60_m=1057_p=0.60_SET2_setparam=100.00_alpha=0.50_676.lp
maximize
OBJ:100x0 + 100x1 + 100x2 + 100x3 + 100x4 + 100x5 + 100x6 + 100x7 + 100x8 + 100x9 + 100x10 + 100x11 + 100x12 + 100x13 + 100x14 + 100x15 + 100x16 + 100x17 + 100x18 + 100x19 + 100x20 + 100x21 + 100x22 + 100x23 + 100x24 + 100x25 + 100x26 + 100x27 + 100x28 + 100x29 + 100x30 + 100x31 + 100x32 + 100x33 + 100x34 + 100x35 + 100x36 + 100x37 + 100x38 + 100x39 + 100x40 + 100x41 + 100x42 + 100x43 + 100x44 + 100x45 + 100x46 + 100x47 + 100x48 + 100x49 + 100x50 + 100x51 + 100x52 + 100x53 + 100x54 + 100x55 + 100x56 + 100x57 + 100x58 + 100x59 - y55_57 - y36_53 - y18_26 - y26_39 - y29_32 - y8_18 - y0_14 - y6_48 - y29_50 - y0_23 - y11_23 - y40_59 - y41_42 - y25_34 - y44_47 - y2_41 - y25_43 - y25_52 - y22_37 - y3_42 - y14_42 - y15_16 - y18_21 - y6_34 - y29_45 - y48_58 - y29_54 - y21_59 - y10_22 - y25_29 - y10_40 - y2_45 - y3_10 - y10_58 - y22_23 - y32_55 - y13_51 - y55_56 - y17_39 - y7_16 - y36_52 - y47_52 - y9_53 - y6_38 - y29_40 - y21_36 - y40_49 - y21_45 - y6_56 - y10_17 - y10_26 - y10_35 - y2_31 - y25_33 - y3_5 - y51_54 - y2_49 - y3_14 - y43_50 - y22_27 - y24_46 - y3_23 - y43_59 - y1_53 - y13_55 - y17_25 - y36_47 - y5_41 - y36_56 - y5_50 - y17_52 - y28_52 - y5_59 - y21_22 - y6_42 - y39_48 - y10_30 - y2_26 - y10_39 - y2_35 - y3_9 - y51_58 - y16_37 - y1_48 - y13_50 - y13_59 - y36_42 - y9_25 - y5_36 - y17_38 - y28_38 - y17_56 - y28_56 - y21_35 - y20_39 - y31_48 - y2_21 - y31_57 - y12_53 - y2_30 - y3_4 - y4_58 - y32_40 - y1_34 - y24_36 - y1_43 - y35_45 - y16_50 - y9_11 - y5_22 - y36_37 - y5_31 - y17_33 - y3_47 - y9_38 - y50_57 - y8_51 - y0_56 - y39_47 - y2_7 - y2_16 - y20_52 - y31_52 - y4_44 - y12_57 - y23_57 - y4_53 - y32_35 - y13_31 - y16_27 - y24_40 - y43_53 - y1_47 - y24_49 - y38_51 - y17_37 - y9_33 - y5_44 - y6_9 - y27_41 - y6_18 - y30_46 - y42_48 - y39_42 - y12_25 - y20_38 - y31_47 - y12_52 - y1_15 - y23_52 - y24_26 - y4_57 - y24_35 - y13_44 - y46_50 - y38_46 - y5_21 - y26_53 - y5_30 - y6_13 - y19_41 - y19_50 - y20_33 - y12_38 - y23_38 - y4_34 - y45_53 - y1_28 - y24_30 - y38_41 - y5_16 - y46_54 - y26_48 - y38_50 - y5_25 - y15_57 - y27_31 - y19_27 - y30_36 - y12_15 - y11_59 - y12_24 - y4_29 - y1_14 - y34_48 - y24_25 - y37_44 - y22_55 - y45_57 - y1_32 - y56_57 - y26_34 - y15_43 - y46_58 - y7_39 - y18_48 - y7_57 - y8_22 - y18_57 - y27_35 - y0_18 - y11_18 - y30_40 - y27_53 - y0_36 - y11_36 - y30_49 - y0_45 - y41_46 - y30_58 - y11_54 - y4_24 - y4_33 - y1_18 - y22_50 - y34_52 - y37_48 - y14_55 - y15_29 - y18_25 - y26_38 - y38_40 - y7_34 - y26_47 - y38_49 - y7_52 - y0_13 - y8_26 - y29_58 - y8_35 - y11_31 - y8_44 - y19_44 - y30_44 - y4_10 - y33_55 - y4_28 - y1_13 - y22_45 - y3_41 - y14_41 - y22_54 - y34_56 - y14_50 - y15_24 - y26_42 - y7_38 - y7_47 - y8_12 - y18_47 - y7_56 - y19_21 - y0_17 - y8_30 - y0_35 - y4_5 - y52_54 - y33_50 - y10_57 - y25_55 - y3_27 - y14_27 - y3_36 - y22_49 - y3_45 - y37_47 - y22_58 - y15_19 - y15_28 - y18_24 - y15_37 - y26_46 - y7_42 - y8_16 - y40_48 - y19_25 - y6_55 - y11_21 - y40_57 - y21_53 - y10_34 - y41_49 - y4_9 - y33_45 - y41_58 - y44_45 - y52_58 - y25_50 - y3_13 - y2_57 - y14_22 - y25_59 - y34_37 - y3_31 - y14_40 - y28_51 - y18_28 - y18_37 - y29_34 - y40_43 - y48_56 - y0_16 - y29_52 - y40_52 - y10_38 - y25_36 - y10_47 - y33_49 - y3_8 - y3_26 - y24_58 - y3_44 - y36_50 - y18_23 - y28_55 - y29_38 - y40_47 - y29_56 - y21_52 - y2_20 - y10_42 - y33_44 - y43_48 - y2_56 - y3_21 - y14_21 - y32_57 - y35_53 - y14_30 - y7_9 - y28_41 - y36_54 - y28_50 - y9_46 - y28_59 - y6_40 - y21_38 - y40_51 - y2_6 - y39_55 - y2_15 - y32_34 - y2_42 - y3_7 - y32_43 - y51_56 - y3_16 - y43_52 - y24_48 - y14_25 - y16_44 - y16_53 - y36_40 - y17_54 - y6_17 - y9_50 - y21_24 - y6_35 - y20_46 - y31_46 - y31_55 - y10_32 - y2_37 - y3_11 - y32_56 - y16_48 - y5_29 - y9_27 - y17_49 - y6_21 - y50_55 - y20_41 - y23_46 - y31_59 - y12_55 - y4_51 - y13_29 - y24_38 - y49_58 - y9_31 - y28_44 - y6_7 - y27_48 - y6_25 - y42_46 - y20_27 - y11_58 - y39_40 - y31_36 - y39_49 - y23_32 - y2_18 - y31_54 - y4_55 - y1_31 - y13_42 - y24_42 - y5_28 - y9_26 - y27_34 - y6_11 - y50_54 - y30_48 - y42_50 - y20_22 - y12_27 - y23_27 - y20_40 - y39_53 - y12_36 - y23_36 - y20_58 - y13_19 - y53_55 - y1_26 - y16_24 - y35_37 - y38_39 - y26_55 - y49_57 - y7_51 - y18_51 - y27_29 - y8_25 - y8_34 - y30_34 - y0_30 - y11_39 - y19_52 - y30_52 - y20_26 - y0_57 - y12_22 - y20_35 - y31_44 - y12_40 - y1_3 - y12_49 - y1_12 - y23_49 - y45_46 - y1_21 - y53_59 - y16_19 - y1_30 - y1_39 - y46_47 - y15_41 - y38_43 - y5_18 - y46_56 - y15_50 - y26_50 - y18_46 - y19_29 - y27_42 - y19_47 - y30_47 - y8_56 - y20_21 - y11_52 - y12_17 - y20_30 - y23_26 - y23_35 - y23_44 - y13_18 - y1_25 - y16_23 - y22_57 - y45_59 - y26_27 - y18_32 - y15_45 - y15_54 - y7_50 - y8_15 - y18_50 - y8_24 - y11_29 - y8_42 - y11_38 - y0_47 - y11_47 - y44_53 - y23_30 - y25_49 - y34_54 - y37_50 - y14_57 - y26_31 - y7_27 - y7_36 - y15_49 - y15_58 - y0_6 - y8_19 - y19_28 - y8_37 - y30_37 - y12_16 - y44_57 - y22_29 - y22_47 - y45_49 - y37_45 - y26_35 - y18_31 - y8_14 - y29_46 - y48_59 - y40_55 - y30_32 - y21_51 - y0_28 - y33_34 - y4_7 - y25_39 - y4_16 - y10_50 - y33_52 - y3_20 - y22_33 - y14_29 - y14_47
 Subject to
C1: x0+x1 <=1 
C2: x0+x5 <=1 
C3: x0+x6-y0_6 <=1 
C4: x0+x8 <=1 
C5: x0+x9 <=1 
C6: x0+x12 <=1 
C7: x0+x13-y0_13 <=1 
C8: x0+x14-y0_14 <=1 
C9: x0+x15 <=1 
C10: x0+x16-y0_16 <=1 
C11: x0+x17-y0_17 <=1 
C12: x0+x18-y0_18 <=1 
C13: x0+x23-y0_23 <=1 
C14: x0+x24 <=1 
C15: x0+x25 <=1 
C16: x0+x28-y0_28 <=1 
C17: x0+x30-y0_30 <=1 
C18: x0+x32 <=1 
C19: x0+x34 <=1 
C20: x0+x35-y0_35 <=1 
C21: x0+x36-y0_36 <=1 
C22: x0+x38 <=1 
C23: x0+x40 <=1 
C24: x0+x45-y0_45 <=1 
C25: x0+x47-y0_47 <=1 
C26: x0+x53 <=1 
C27: x0+x56-y0_56 <=1 
C28: x0+x57-y0_57 <=1 
C29: x0+x58 <=1 
C30: x1+x3-y1_3 <=1 
C31: x1+x4 <=1 
C32: x1+x7 <=1 
C33: x1+x8 <=1 
C34: x1+x9 <=1 
C35: x1+x12-y1_12 <=1 
C36: x1+x13-y1_13 <=1 
C37: x1+x14-y1_14 <=1 
C38: x1+x15-y1_15 <=1 
C39: x1+x17 <=1 
C40: x1+x18-y1_18 <=1 
C41: x1+x20 <=1 
C42: x1+x21-y1_21 <=1 
C43: x1+x22 <=1 
C44: x1+x25-y1_25 <=1 
C45: x1+x26-y1_26 <=1 
C46: x1+x28-y1_28 <=1 
C47: x1+x29 <=1 
C48: x1+x30-y1_30 <=1 
C49: x1+x31-y1_31 <=1 
C50: x1+x32-y1_32 <=1 
C51: x1+x34-y1_34 <=1 
C52: x1+x37 <=1 
C53: x1+x39-y1_39 <=1 
C54: x1+x40 <=1 
C55: x1+x41 <=1 
C56: x1+x42 <=1 
C57: x1+x43-y1_43 <=1 
C58: x1+x47-y1_47 <=1 
C59: x1+x48-y1_48 <=1 
C60: x1+x50 <=1 
C61: x1+x51 <=1 
C62: x1+x52 <=1 
C63: x1+x53-y1_53 <=1 
C64: x1+x59 <=1 
C65: x2+x3 <=1 
C66: x2+x6-y2_6 <=1 
C67: x2+x7-y2_7 <=1 
C68: x2+x8 <=1 
C69: x2+x10 <=1 
C70: x2+x11 <=1 
C71: x2+x12 <=1 
C72: x2+x13 <=1 
C73: x2+x15-y2_15 <=1 
C74: x2+x16-y2_16 <=1 
C75: x2+x17 <=1 
C76: x2+x18-y2_18 <=1 
C77: x2+x20-y2_20 <=1 
C78: x2+x21-y2_21 <=1 
C79: x2+x23 <=1 
C80: x2+x25 <=1 
C81: x2+x26-y2_26 <=1 
C82: x2+x27 <=1 
C83: x2+x28 <=1 
C84: x2+x30-y2_30 <=1 
C85: x2+x31-y2_31 <=1 
C86: x2+x34 <=1 
C87: x2+x35-y2_35 <=1 
C88: x2+x37-y2_37 <=1 
C89: x2+x41-y2_41 <=1 
C90: x2+x42-y2_42 <=1 
C91: x2+x44 <=1 
C92: x2+x45-y2_45 <=1 
C93: x2+x46 <=1 
C94: x2+x47 <=1 
C95: x2+x49-y2_49 <=1 
C96: x2+x53 <=1 
C97: x2+x56-y2_56 <=1 
C98: x2+x57-y2_57 <=1 
C99: x2+x58 <=1 
C100: x3+x4-y3_4 <=1 
C101: x3+x5-y3_5 <=1 
C102: x3+x7-y3_7 <=1 
C103: x3+x8-y3_8 <=1 
C104: x3+x9-y3_9 <=1 
C105: x3+x10-y3_10 <=1 
C106: x3+x11-y3_11 <=1 
C107: x3+x13-y3_13 <=1 
C108: x3+x14-y3_14 <=1 
C109: x3+x15 <=1 
C110: x3+x16-y3_16 <=1 
C111: x3+x17 <=1 
C112: x3+x19 <=1 
C113: x3+x20-y3_20 <=1 
C114: x3+x21-y3_21 <=1 
C115: x3+x23-y3_23 <=1 
C116: x3+x26-y3_26 <=1 
C117: x3+x27-y3_27 <=1 
C118: x3+x30 <=1 
C119: x3+x31-y3_31 <=1 
C120: x3+x32 <=1 
C121: x3+x33 <=1 
C122: x3+x36-y3_36 <=1 
C123: x3+x41-y3_41 <=1 
C124: x3+x42-y3_42 <=1 
C125: x3+x44-y3_44 <=1 
C126: x3+x45-y3_45 <=1 
C127: x3+x46 <=1 
C128: x3+x47-y3_47 <=1 
C129: x3+x49 <=1 
C130: x3+x50 <=1 
C131: x3+x51 <=1 
C132: x3+x53 <=1 
C133: x3+x54 <=1 
C134: x3+x56 <=1 
C135: x3+x58 <=1 
C136: x4+x5-y4_5 <=1 
C137: x4+x6 <=1 
C138: x4+x7-y4_7 <=1 
C139: x4+x8 <=1 
C140: x4+x9-y4_9 <=1 
C141: x4+x10-y4_10 <=1 
C142: x4+x12 <=1 
C143: x4+x14 <=1 
C144: x4+x16-y4_16 <=1 
C145: x4+x17 <=1 
C146: x4+x18 <=1 
C147: x4+x21 <=1 
C148: x4+x23 <=1 
C149: x4+x24-y4_24 <=1 
C150: x4+x25 <=1 
C151: x4+x26 <=1 
C152: x4+x28-y4_28 <=1 
C153: x4+x29-y4_29 <=1 
C154: x4+x32 <=1 
C155: x4+x33-y4_33 <=1 
C156: x4+x34-y4_34 <=1 
C157: x4+x37 <=1 
C158: x4+x38 <=1 
C159: x4+x39 <=1 
C160: x4+x41 <=1 
C161: x4+x44-y4_44 <=1 
C162: x4+x51-y4_51 <=1 
C163: x4+x53-y4_53 <=1 
C164: x4+x54 <=1 
C165: x4+x55-y4_55 <=1 
C166: x4+x57-y4_57 <=1 
C167: x4+x58-y4_58 <=1 
C168: x4+x59 <=1 
C169: x5+x6 <=1 
C170: x5+x9 <=1 
C171: x5+x16-y5_16 <=1 
C172: x5+x18-y5_18 <=1 
C173: x5+x19 <=1 
C174: x5+x21-y5_21 <=1 
C175: x5+x22-y5_22 <=1 
C176: x5+x24 <=1 
C177: x5+x25-y5_25 <=1 
C178: x5+x27 <=1 
C179: x5+x28-y5_28 <=1 
C180: x5+x29-y5_29 <=1 
C181: x5+x30-y5_30 <=1 
C182: x5+x31-y5_31 <=1 
C183: x5+x32 <=1 
C184: x5+x33 <=1 
C185: x5+x35 <=1 
C186: x5+x36-y5_36 <=1 
C187: x5+x37 <=1 
C188: x5+x38 <=1 
C189: x5+x41-y5_41 <=1 
C190: x5+x42 <=1 
C191: x5+x43 <=1 
C192: x5+x44-y5_44 <=1 
C193: x5+x46 <=1 
C194: x5+x50-y5_50 <=1 
C195: x5+x51 <=1 
C196: x5+x52 <=1 
C197: x5+x55 <=1 
C198: x5+x59-y5_59 <=1 
C199: x6+x7-y6_7 <=1 
C200: x6+x9-y6_9 <=1 
C201: x6+x11-y6_11 <=1 
C202: x6+x12 <=1 
C203: x6+x13-y6_13 <=1 
C204: x6+x14 <=1 
C205: x6+x16 <=1 
C206: x6+x17-y6_17 <=1 
C207: x6+x18-y6_18 <=1 
C208: x6+x21-y6_21 <=1 
C209: x6+x25-y6_25 <=1 
C210: x6+x30 <=1 
C211: x6+x31 <=1 
C212: x6+x32 <=1 
C213: x6+x33 <=1 
C214: x6+x34-y6_34 <=1 
C215: x6+x35-y6_35 <=1 
C216: x6+x36 <=1 
C217: x6+x38-y6_38 <=1 
C218: x6+x40-y6_40 <=1 
C219: x6+x42-y6_42 <=1 
C220: x6+x43 <=1 
C221: x6+x44 <=1 
C222: x6+x45 <=1 
C223: x6+x47 <=1 
C224: x6+x48-y6_48 <=1 
C225: x6+x49 <=1 
C226: x6+x52 <=1 
C227: x6+x53 <=1 
C228: x6+x55-y6_55 <=1 
C229: x6+x56-y6_56 <=1 
C230: x6+x57 <=1 
C231: x7+x9-y7_9 <=1 
C232: x7+x12 <=1 
C233: x7+x13 <=1 
C234: x7+x16-y7_16 <=1 
C235: x7+x18 <=1 
C236: x7+x23 <=1 
C237: x7+x24 <=1 
C238: x7+x26 <=1 
C239: x7+x27-y7_27 <=1 
C240: x7+x33 <=1 
C241: x7+x34-y7_34 <=1 
C242: x7+x35 <=1 
C243: x7+x36-y7_36 <=1 
C244: x7+x37 <=1 
C245: x7+x38-y7_38 <=1 
C246: x7+x39-y7_39 <=1 
C247: x7+x40 <=1 
C248: x7+x42-y7_42 <=1 
C249: x7+x46 <=1 
C250: x7+x47-y7_47 <=1 
C251: x7+x48 <=1 
C252: x7+x50-y7_50 <=1 
C253: x7+x51-y7_51 <=1 
C254: x7+x52-y7_52 <=1 
C255: x7+x56-y7_56 <=1 
C256: x7+x57-y7_57 <=1 
C257: x7+x59 <=1 
C258: x8+x12-y8_12 <=1 
C259: x8+x14-y8_14 <=1 
C260: x8+x15-y8_15 <=1 
C261: x8+x16-y8_16 <=1 
C262: x8+x18-y8_18 <=1 
C263: x8+x19-y8_19 <=1 
C264: x8+x22-y8_22 <=1 
C265: x8+x24-y8_24 <=1 
C266: x8+x25-y8_25 <=1 
C267: x8+x26-y8_26 <=1 
C268: x8+x27 <=1 
C269: x8+x30-y8_30 <=1 
C270: x8+x33 <=1 
C271: x8+x34-y8_34 <=1 
C272: x8+x35-y8_35 <=1 
C273: x8+x37-y8_37 <=1 
C274: x8+x41 <=1 
C275: x8+x42-y8_42 <=1 
C276: x8+x43 <=1 
C277: x8+x44-y8_44 <=1 
C278: x8+x49 <=1 
C279: x8+x50 <=1 
C280: x8+x51-y8_51 <=1 
C281: x8+x52 <=1 
C282: x8+x54 <=1 
C283: x8+x55 <=1 
C284: x8+x56-y8_56 <=1 
C285: x8+x59 <=1 
C286: x9+x11-y9_11 <=1 
C287: x9+x13 <=1 
C288: x9+x15 <=1 
C289: x9+x16 <=1 
C290: x9+x23 <=1 
C291: x9+x24 <=1 
C292: x9+x25-y9_25 <=1 
C293: x9+x26-y9_26 <=1 
C294: x9+x27-y9_27 <=1 
C295: x9+x28 <=1 
C296: x9+x31-y9_31 <=1 
C297: x9+x33-y9_33 <=1 
C298: x9+x38-y9_38 <=1 
C299: x9+x41 <=1 
C300: x9+x42 <=1 
C301: x9+x43 <=1 
C302: x9+x46-y9_46 <=1 
C303: x9+x48 <=1 
C304: x9+x50-y9_50 <=1 
C305: x9+x51 <=1 
C306: x9+x52 <=1 
C307: x9+x53-y9_53 <=1 
C308: x9+x55 <=1 
C309: x9+x58 <=1 
C310: x9+x59 <=1 
C311: x10+x11 <=1 
C312: x10+x12 <=1 
C313: x10+x13 <=1 
C314: x10+x14 <=1 
C315: x10+x16 <=1 
C316: x10+x17-y10_17 <=1 
C317: x10+x19 <=1 
C318: x10+x22-y10_22 <=1 
C319: x10+x23 <=1 
C320: x10+x24 <=1 
C321: x10+x26-y10_26 <=1 
C322: x10+x30-y10_30 <=1 
C323: x10+x32-y10_32 <=1 
C324: x10+x34-y10_34 <=1 
C325: x10+x35-y10_35 <=1 
C326: x10+x37 <=1 
C327: x10+x38-y10_38 <=1 
C328: x10+x39-y10_39 <=1 
C329: x10+x40-y10_40 <=1 
C330: x10+x42-y10_42 <=1 
C331: x10+x47-y10_47 <=1 
C332: x10+x48 <=1 
C333: x10+x50-y10_50 <=1 
C334: x10+x52 <=1 
C335: x10+x53 <=1 
C336: x10+x54 <=1 
C337: x10+x55 <=1 
C338: x10+x57-y10_57 <=1 
C339: x10+x58-y10_58 <=1 
C340: x10+x59 <=1 
C341: x11+x18-y11_18 <=1 
C342: x11+x19 <=1 
C343: x11+x20 <=1 
C344: x11+x21-y11_21 <=1 
C345: x11+x23-y11_23 <=1 
C346: x11+x25 <=1 
C347: x11+x27 <=1 
C348: x11+x29-y11_29 <=1 
C349: x11+x31-y11_31 <=1 
C350: x11+x32 <=1 
C351: x11+x33 <=1 
C352: x11+x34 <=1 
C353: x11+x35 <=1 
C354: x11+x36-y11_36 <=1 
C355: x11+x37 <=1 
C356: x11+x38-y11_38 <=1 
C357: x11+x39-y11_39 <=1 
C358: x11+x42 <=1 
C359: x11+x44 <=1 
C360: x11+x46 <=1 
C361: x11+x47-y11_47 <=1 
C362: x11+x48 <=1 
C363: x11+x52-y11_52 <=1 
C364: x11+x54-y11_54 <=1 
C365: x11+x57 <=1 
C366: x11+x58-y11_58 <=1 
C367: x11+x59-y11_59 <=1 
C368: x12+x13 <=1 
C369: x12+x15-y12_15 <=1 
C370: x12+x16-y12_16 <=1 
C371: x12+x17-y12_17 <=1 
C372: x12+x18 <=1 
C373: x12+x20 <=1 
C374: x12+x21 <=1 
C375: x12+x22-y12_22 <=1 
C376: x12+x24-y12_24 <=1 
C377: x12+x25-y12_25 <=1 
C378: x12+x26 <=1 
C379: x12+x27-y12_27 <=1 
C380: x12+x33 <=1 
C381: x12+x34 <=1 
C382: x12+x36-y12_36 <=1 
C383: x12+x37 <=1 
C384: x12+x38-y12_38 <=1 
C385: x12+x40-y12_40 <=1 
C386: x12+x43 <=1 
C387: x12+x44 <=1 
C388: x12+x45 <=1 
C389: x12+x47 <=1 
C390: x12+x49-y12_49 <=1 
C391: x12+x52-y12_52 <=1 
C392: x12+x53-y12_53 <=1 
C393: x12+x54 <=1 
C394: x12+x55-y12_55 <=1 
C395: x12+x57-y12_57 <=1 
C396: x12+x59 <=1 
C397: x13+x16 <=1 
C398: x13+x18-y13_18 <=1 
C399: x13+x19-y13_19 <=1 
C400: x13+x20 <=1 
C401: x13+x22 <=1 
C402: x13+x23 <=1 
C403: x13+x25 <=1 
C404: x13+x26 <=1 
C405: x13+x29-y13_29 <=1 
C406: x13+x30 <=1 
C407: x13+x31-y13_31 <=1 
C408: x13+x33 <=1 
C409: x13+x34 <=1 
C410: x13+x37 <=1 
C411: x13+x39 <=1 
C412: x13+x40 <=1 
C413: x13+x42-y13_42 <=1 
C414: x13+x43 <=1 
C415: x13+x44-y13_44 <=1 
C416: x13+x50-y13_50 <=1 
C417: x13+x51-y13_51 <=1 
C418: x13+x52 <=1 
C419: x13+x53 <=1 
C420: x13+x55-y13_55 <=1 
C421: x13+x56 <=1 
C422: x13+x57 <=1 
C423: x13+x59-y13_59 <=1 
C424: x14+x16 <=1 
C425: x14+x17 <=1 
C426: x14+x19 <=1 
C427: x14+x20 <=1 
C428: x14+x21-y14_21 <=1 
C429: x14+x22-y14_22 <=1 
C430: x14+x23 <=1 
C431: x14+x25-y14_25 <=1 
C432: x14+x27-y14_27 <=1 
C433: x14+x29-y14_29 <=1 
C434: x14+x30-y14_30 <=1 
C435: x14+x31 <=1 
C436: x14+x33 <=1 
C437: x14+x34 <=1 
C438: x14+x35 <=1 
C439: x14+x37 <=1 
C440: x14+x38 <=1 
C441: x14+x40-y14_40 <=1 
C442: x14+x41-y14_41 <=1 
C443: x14+x42-y14_42 <=1 
C444: x14+x44 <=1 
C445: x14+x45 <=1 
C446: x14+x47-y14_47 <=1 
C447: x14+x50-y14_50 <=1 
C448: x14+x52 <=1 
C449: x14+x53 <=1 
C450: x14+x55-y14_55 <=1 
C451: x14+x56 <=1 
C452: x14+x57-y14_57 <=1 
C453: x15+x16-y15_16 <=1 
C454: x15+x19-y15_19 <=1 
C455: x15+x23 <=1 
C456: x15+x24-y15_24 <=1 
C457: x15+x25 <=1 
C458: x15+x26 <=1 
C459: x15+x28-y15_28 <=1 
C460: x15+x29-y15_29 <=1 
C461: x15+x31 <=1 
C462: x15+x32 <=1 
C463: x15+x35 <=1 
C464: x15+x37-y15_37 <=1 
C465: x15+x41-y15_41 <=1 
C466: x15+x43-y15_43 <=1 
C467: x15+x45-y15_45 <=1 
C468: x15+x46 <=1 
C469: x15+x49-y15_49 <=1 
C470: x15+x50-y15_50 <=1 
C471: x15+x52 <=1 
C472: x15+x54-y15_54 <=1 
C473: x15+x56 <=1 
C474: x15+x57-y15_57 <=1 
C475: x15+x58-y15_58 <=1 
C476: x16+x17 <=1 
C477: x16+x19-y16_19 <=1 
C478: x16+x21 <=1 
C479: x16+x23-y16_23 <=1 
C480: x16+x24-y16_24 <=1 
C481: x16+x27-y16_27 <=1 
C482: x16+x31 <=1 
C483: x16+x33 <=1 
C484: x16+x35 <=1 
C485: x16+x36 <=1 
C486: x16+x37-y16_37 <=1 
C487: x16+x39 <=1 
C488: x16+x41 <=1 
C489: x16+x42 <=1 
C490: x16+x44-y16_44 <=1 
C491: x16+x45 <=1 
C492: x16+x46 <=1 
C493: x16+x48-y16_48 <=1 
C494: x16+x49 <=1 
C495: x16+x50-y16_50 <=1 
C496: x16+x51 <=1 
C497: x16+x53-y16_53 <=1 
C498: x16+x54 <=1 
C499: x16+x55 <=1 
C500: x16+x58 <=1 
C501: x17+x18 <=1 
C502: x17+x21 <=1 
C503: x17+x22 <=1 
C504: x17+x23 <=1 
C505: x17+x25-y17_25 <=1 
C506: x17+x26 <=1 
C507: x17+x29 <=1 
C508: x17+x30 <=1 
C509: x17+x33-y17_33 <=1 
C510: x17+x35 <=1 
C511: x17+x36 <=1 
C512: x17+x37-y17_37 <=1 
C513: x17+x38-y17_38 <=1 
C514: x17+x39-y17_39 <=1 
C515: x17+x42 <=1 
C516: x17+x43 <=1 
C517: x17+x47 <=1 
C518: x17+x48 <=1 
C519: x17+x49-y17_49 <=1 
C520: x17+x52-y17_52 <=1 
C521: x17+x53 <=1 
C522: x17+x54-y17_54 <=1 
C523: x17+x56-y17_56 <=1 
C524: x18+x21-y18_21 <=1 
C525: x18+x23-y18_23 <=1 
C526: x18+x24-y18_24 <=1 
C527: x18+x25-y18_25 <=1 
C528: x18+x26-y18_26 <=1 
C529: x18+x28-y18_28 <=1 
C530: x18+x29 <=1 
C531: x18+x31-y18_31 <=1 
C532: x18+x32-y18_32 <=1 
C533: x18+x33 <=1 
C534: x18+x36 <=1 
C535: x18+x37-y18_37 <=1 
C536: x18+x39 <=1 
C537: x18+x40 <=1 
C538: x18+x42 <=1 
C539: x18+x44 <=1 
C540: x18+x45 <=1 
C541: x18+x46-y18_46 <=1 
C542: x18+x47-y18_47 <=1 
C543: x18+x48-y18_48 <=1 
C544: x18+x50-y18_50 <=1 
C545: x18+x51-y18_51 <=1 
C546: x18+x54 <=1 
C547: x18+x57-y18_57 <=1 
C548: x19+x21-y19_21 <=1 
C549: x19+x22 <=1 
C550: x19+x25-y19_25 <=1 
C551: x19+x27-y19_27 <=1 
C552: x19+x28-y19_28 <=1 
C553: x19+x29-y19_29 <=1 
C554: x19+x31 <=1 
C555: x19+x32 <=1 
C556: x19+x34 <=1 
C557: x19+x36 <=1 
C558: x19+x38 <=1 
C559: x19+x39 <=1 
C560: x19+x41-y19_41 <=1 
C561: x19+x43 <=1 
C562: x19+x44-y19_44 <=1 
C563: x19+x46 <=1 
C564: x19+x47-y19_47 <=1 
C565: x19+x48 <=1 
C566: x19+x49 <=1 
C567: x19+x50-y19_50 <=1 
C568: x19+x51 <=1 
C569: x19+x52-y19_52 <=1 
C570: x19+x53 <=1 
C571: x19+x54 <=1 
C572: x19+x57 <=1 
C573: x19+x58 <=1 
C574: x20+x21-y20_21 <=1 
C575: x20+x22-y20_22 <=1 
C576: x20+x23 <=1 
C577: x20+x24 <=1 
C578: x20+x26-y20_26 <=1 
C579: x20+x27-y20_27 <=1 
C580: x20+x29 <=1 
C581: x20+x30-y20_30 <=1 
C582: x20+x31 <=1 
C583: x20+x33-y20_33 <=1 
C584: x20+x34 <=1 
C585: x20+x35-y20_35 <=1 
C586: x20+x38-y20_38 <=1 
C587: x20+x39-y20_39 <=1 
C588: x20+x40-y20_40 <=1 
C589: x20+x41-y20_41 <=1 
C590: x20+x42 <=1 
C591: x20+x46-y20_46 <=1 
C592: x20+x48 <=1 
C593: x20+x50 <=1 
C594: x20+x52-y20_52 <=1 
C595: x20+x53 <=1 
C596: x20+x55 <=1 
C597: x20+x57 <=1 
C598: x20+x58-y20_58 <=1 
C599: x20+x59 <=1 
C600: x21+x22-y21_22 <=1 
C601: x21+x24-y21_24 <=1 
C602: x21+x28 <=1 
C603: x21+x30 <=1 
C604: x21+x32 <=1 
C605: x21+x33 <=1 
C606: x21+x35-y21_35 <=1 
C607: x21+x36-y21_36 <=1 
C608: x21+x37 <=1 
C609: x21+x38-y21_38 <=1 
C610: x21+x40 <=1 
C611: x21+x42 <=1 
C612: x21+x45-y21_45 <=1 
C613: x21+x48 <=1 
C614: x21+x51-y21_51 <=1 
C615: x21+x52-y21_52 <=1 
C616: x21+x53-y21_53 <=1 
C617: x21+x55 <=1 
C618: x21+x58 <=1 
C619: x21+x59-y21_59 <=1 
C620: x22+x23-y22_23 <=1 
C621: x22+x26 <=1 
C622: x22+x27-y22_27 <=1 
C623: x22+x29-y22_29 <=1 
C624: x22+x30 <=1 
C625: x22+x33-y22_33 <=1 
C626: x22+x35 <=1 
C627: x22+x37-y22_37 <=1 
C628: x22+x39 <=1 
C629: x22+x43 <=1 
C630: x22+x45-y22_45 <=1 
C631: x22+x47-y22_47 <=1 
C632: x22+x49-y22_49 <=1 
C633: x22+x50-y22_50 <=1 
C634: x22+x51 <=1 
C635: x22+x54-y22_54 <=1 
C636: x22+x55-y22_55 <=1 
C637: x22+x56 <=1 
C638: x22+x57-y22_57 <=1 
C639: x22+x58-y22_58 <=1 
C640: x22+x59 <=1 
C641: x23+x26-y23_26 <=1 
C642: x23+x27-y23_27 <=1 
C643: x23+x30-y23_30 <=1 
C644: x23+x31 <=1 
C645: x23+x32-y23_32 <=1 
C646: x23+x34 <=1 
C647: x23+x35-y23_35 <=1 
C648: x23+x36-y23_36 <=1 
C649: x23+x38-y23_38 <=1 
C650: x23+x39 <=1 
C651: x23+x40 <=1 
C652: x23+x43 <=1 
C653: x23+x44-y23_44 <=1 
C654: x23+x46-y23_46 <=1 
C655: x23+x47 <=1 
C656: x23+x49-y23_49 <=1 
C657: x23+x51 <=1 
C658: x23+x52-y23_52 <=1 
C659: x23+x54 <=1 
C660: x23+x56 <=1 
C661: x23+x57-y23_57 <=1 
C662: x23+x58 <=1 
C663: x23+x59 <=1 
C664: x24+x25-y24_25 <=1 
C665: x24+x26-y24_26 <=1 
C666: x24+x28 <=1 
C667: x24+x30-y24_30 <=1 
C668: x24+x33 <=1 
C669: x24+x35-y24_35 <=1 
C670: x24+x36-y24_36 <=1 
C671: x24+x37 <=1 
C672: x24+x38-y24_38 <=1 
C673: x24+x40-y24_40 <=1 
C674: x24+x42-y24_42 <=1 
C675: x24+x46-y24_46 <=1 
C676: x24+x48-y24_48 <=1 
C677: x24+x49-y24_49 <=1 
C678: x24+x52 <=1 
C679: x24+x54 <=1 
C680: x24+x58-y24_58 <=1 
C681: x24+x59 <=1 
C682: x25+x26 <=1 
C683: x25+x29-y25_29 <=1 
C684: x25+x30 <=1 
C685: x25+x31 <=1 
C686: x25+x33-y25_33 <=1 
C687: x25+x34-y25_34 <=1 
C688: x25+x36-y25_36 <=1 
C689: x25+x39-y25_39 <=1 
C690: x25+x40 <=1 
C691: x25+x41 <=1 
C692: x25+x42 <=1 
C693: x25+x43-y25_43 <=1 
C694: x25+x44 <=1 
C695: x25+x46 <=1 
C696: x25+x47 <=1 
C697: x25+x48 <=1 
C698: x25+x49-y25_49 <=1 
C699: x25+x50-y25_50 <=1 
C700: x25+x51 <=1 
C701: x25+x52-y25_52 <=1 
C702: x25+x54 <=1 
C703: x25+x55-y25_55 <=1 
C704: x25+x59-y25_59 <=1 
C705: x26+x27-y26_27 <=1 
C706: x26+x31-y26_31 <=1 
C707: x26+x33 <=1 
C708: x26+x34-y26_34 <=1 
C709: x26+x35-y26_35 <=1 
C710: x26+x36 <=1 
C711: x26+x38-y26_38 <=1 
C712: x26+x39-y26_39 <=1 
C713: x26+x40 <=1 
C714: x26+x42-y26_42 <=1 
C715: x26+x46-y26_46 <=1 
C716: x26+x47-y26_47 <=1 
C717: x26+x48-y26_48 <=1 
C718: x26+x49 <=1 
C719: x26+x50-y26_50 <=1 
C720: x26+x51 <=1 
C721: x26+x53-y26_53 <=1 
C722: x26+x55-y26_55 <=1 
C723: x26+x56 <=1 
C724: x26+x59 <=1 
C725: x27+x28 <=1 
C726: x27+x29-y27_29 <=1 
C727: x27+x31-y27_31 <=1 
C728: x27+x33 <=1 
C729: x27+x34-y27_34 <=1 
C730: x27+x35-y27_35 <=1 
C731: x27+x36 <=1 
C732: x27+x37 <=1 
C733: x27+x39 <=1 
C734: x27+x40 <=1 
C735: x27+x41-y27_41 <=1 
C736: x27+x42-y27_42 <=1 
C737: x27+x45 <=1 
C738: x27+x48-y27_48 <=1 
C739: x27+x52 <=1 
C740: x27+x53-y27_53 <=1 
C741: x27+x54 <=1 
C742: x27+x55 <=1 
C743: x27+x56 <=1 
C744: x27+x57 <=1 
C745: x27+x58 <=1 
C746: x27+x59 <=1 
C747: x28+x29 <=1 
C748: x28+x30 <=1 
C749: x28+x32 <=1 
C750: x28+x33 <=1 
C751: x28+x36 <=1 
C752: x28+x37 <=1 
C753: x28+x38-y28_38 <=1 
C754: x28+x40 <=1 
C755: x28+x41-y28_41 <=1 
C756: x28+x44-y28_44 <=1 
C757: x28+x45 <=1 
C758: x28+x46 <=1 
C759: x28+x50-y28_50 <=1 
C760: x28+x51-y28_51 <=1 
C761: x28+x52-y28_52 <=1 
C762: x28+x54 <=1 
C763: x28+x55-y28_55 <=1 
C764: x28+x56-y28_56 <=1 
C765: x28+x58 <=1 
C766: x28+x59-y28_59 <=1 
C767: x29+x30 <=1 
C768: x29+x31 <=1 
C769: x29+x32-y29_32 <=1 
C770: x29+x34-y29_34 <=1 
C771: x29+x36 <=1 
C772: x29+x38-y29_38 <=1 
C773: x29+x40-y29_40 <=1 
C774: x29+x41 <=1 
C775: x29+x44 <=1 
C776: x29+x45-y29_45 <=1 
C777: x29+x46-y29_46 <=1 
C778: x29+x48 <=1 
C779: x29+x50-y29_50 <=1 
C780: x29+x52-y29_52 <=1 
C781: x29+x54-y29_54 <=1 
C782: x29+x55 <=1 
C783: x29+x56-y29_56 <=1 
C784: x29+x58-y29_58 <=1 
C785: x29+x59 <=1 
C786: x30+x32-y30_32 <=1 
C787: x30+x33 <=1 
C788: x30+x34-y30_34 <=1 
C789: x30+x36-y30_36 <=1 
C790: x30+x37-y30_37 <=1 
C791: x30+x38 <=1 
C792: x30+x39 <=1 
C793: x30+x40-y30_40 <=1 
C794: x30+x42 <=1 
C795: x30+x44-y30_44 <=1 
C796: x30+x45 <=1 
C797: x30+x46-y30_46 <=1 
C798: x30+x47-y30_47 <=1 
C799: x30+x48-y30_48 <=1 
C800: x30+x49-y30_49 <=1 
C801: x30+x51 <=1 
C802: x30+x52-y30_52 <=1 
C803: x30+x53 <=1 
C804: x30+x58-y30_58 <=1 
C805: x31+x32 <=1 
C806: x31+x35 <=1 
C807: x31+x36-y31_36 <=1 
C808: x31+x38 <=1 
C809: x31+x40 <=1 
C810: x31+x42 <=1 
C811: x31+x44-y31_44 <=1 
C812: x31+x45 <=1 
C813: x31+x46-y31_46 <=1 
C814: x31+x47-y31_47 <=1 
C815: x31+x48-y31_48 <=1 
C816: x31+x51 <=1 
C817: x31+x52-y31_52 <=1 
C818: x31+x54-y31_54 <=1 
C819: x31+x55-y31_55 <=1 
C820: x31+x56 <=1 
C821: x31+x57-y31_57 <=1 
C822: x31+x58 <=1 
C823: x31+x59-y31_59 <=1 
C824: x32+x34-y32_34 <=1 
C825: x32+x35-y32_35 <=1 
C826: x32+x36 <=1 
C827: x32+x38 <=1 
C828: x32+x40-y32_40 <=1 
C829: x32+x43-y32_43 <=1 
C830: x32+x45 <=1 
C831: x32+x47 <=1 
C832: x32+x48 <=1 
C833: x32+x49 <=1 
C834: x32+x51 <=1 
C835: x32+x53 <=1 
C836: x32+x54 <=1 
C837: x32+x55-y32_55 <=1 
C838: x32+x56-y32_56 <=1 
C839: x32+x57-y32_57 <=1 
C840: x33+x34-y33_34 <=1 
C841: x33+x35 <=1 
C842: x33+x37 <=1 
C843: x33+x39 <=1 
C844: x33+x40 <=1 
C845: x33+x43 <=1 
C846: x33+x44-y33_44 <=1 
C847: x33+x45-y33_45 <=1 
C848: x33+x47 <=1 
C849: x33+x49-y33_49 <=1 
C850: x33+x50-y33_50 <=1 
C851: x33+x52-y33_52 <=1 
C852: x33+x55-y33_55 <=1 
C853: x33+x56 <=1 
C854: x33+x57 <=1 
C855: x33+x59 <=1 
C856: x34+x35 <=1 
C857: x34+x37-y34_37 <=1 
C858: x34+x39 <=1 
C859: x34+x42 <=1 
C860: x34+x43 <=1 
C861: x34+x47 <=1 
C862: x34+x48-y34_48 <=1 
C863: x34+x49 <=1 
C864: x34+x50 <=1 
C865: x34+x51 <=1 
C866: x34+x52-y34_52 <=1 
C867: x34+x53 <=1 
C868: x34+x54-y34_54 <=1 
C869: x34+x56-y34_56 <=1 
C870: x34+x59 <=1 
C871: x35+x36 <=1 
C872: x35+x37-y35_37 <=1 
C873: x35+x38 <=1 
C874: x35+x39 <=1 
C875: x35+x40 <=1 
C876: x35+x43 <=1 
C877: x35+x45-y35_45 <=1 
C878: x35+x49 <=1 
C879: x35+x53-y35_53 <=1 
C880: x35+x54 <=1 
C881: x35+x55 <=1 
C882: x35+x58 <=1 
C883: x36+x37-y36_37 <=1 
C884: x36+x38 <=1 
C885: x36+x40-y36_40 <=1 
C886: x36+x41 <=1 
C887: x36+x42-y36_42 <=1 
C888: x36+x45 <=1 
C889: x36+x47-y36_47 <=1 
C890: x36+x48 <=1 
C891: x36+x49 <=1 
C892: x36+x50-y36_50 <=1 
C893: x36+x51 <=1 
C894: x36+x52-y36_52 <=1 
C895: x36+x53-y36_53 <=1 
C896: x36+x54-y36_54 <=1 
C897: x36+x55 <=1 
C898: x36+x56-y36_56 <=1 
C899: x37+x39 <=1 
C900: x37+x43 <=1 
C901: x37+x44-y37_44 <=1 
C902: x37+x45-y37_45 <=1 
C903: x37+x46 <=1 
C904: x37+x47-y37_47 <=1 
C905: x37+x48-y37_48 <=1 
C906: x37+x49 <=1 
C907: x37+x50-y37_50 <=1 
C908: x37+x51 <=1 
C909: x37+x52 <=1 
C910: x37+x54 <=1 
C911: x37+x58 <=1 
C912: x38+x39-y38_39 <=1 
C913: x38+x40-y38_40 <=1 
C914: x38+x41-y38_41 <=1 
C915: x38+x42 <=1 
C916: x38+x43-y38_43 <=1 
C917: x38+x45 <=1 
C918: x38+x46-y38_46 <=1 
C919: x38+x47 <=1 
C920: x38+x49-y38_49 <=1 
C921: x38+x50-y38_50 <=1 
C922: x38+x51-y38_51 <=1 
C923: x38+x53 <=1 
C924: x38+x54 <=1 
C925: x38+x58 <=1 
C926: x39+x40-y39_40 <=1 
C927: x39+x41 <=1 
C928: x39+x42-y39_42 <=1 
C929: x39+x43 <=1 
C930: x39+x45 <=1 
C931: x39+x46 <=1 
C932: x39+x47-y39_47 <=1 
C933: x39+x48-y39_48 <=1 
C934: x39+x49-y39_49 <=1 
C935: x39+x52 <=1 
C936: x39+x53-y39_53 <=1 
C937: x39+x55-y39_55 <=1 
C938: x39+x56 <=1 
C939: x39+x58 <=1 
C940: x40+x41 <=1 
C941: x40+x43-y40_43 <=1 
C942: x40+x47-y40_47 <=1 
C943: x40+x48-y40_48 <=1 
C944: x40+x49-y40_49 <=1 
C945: x40+x50 <=1 
C946: x40+x51-y40_51 <=1 
C947: x40+x52-y40_52 <=1 
C948: x40+x54 <=1 
C949: x40+x55-y40_55 <=1 
C950: x40+x57-y40_57 <=1 
C951: x40+x58 <=1 
C952: x40+x59-y40_59 <=1 
C953: x41+x42-y41_42 <=1 
C954: x41+x46-y41_46 <=1 
C955: x41+x49-y41_49 <=1 
C956: x41+x50 <=1 
C957: x41+x51 <=1 
C958: x41+x52 <=1 
C959: x41+x53 <=1 
C960: x41+x54 <=1 
C961: x41+x57 <=1 
C962: x41+x58-y41_58 <=1 
C963: x41+x59 <=1 
C964: x42+x43 <=1 
C965: x42+x44 <=1 
C966: x42+x45 <=1 
C967: x42+x46-y42_46 <=1 
C968: x42+x48-y42_48 <=1 
C969: x42+x49 <=1 
C970: x42+x50-y42_50 <=1 
C971: x42+x51 <=1 
C972: x42+x54 <=1 
C973: x42+x55 <=1 
C974: x42+x58 <=1 
C975: x42+x59 <=1 
C976: x43+x44 <=1 
C977: x43+x48-y43_48 <=1 
C978: x43+x50-y43_50 <=1 
C979: x43+x51 <=1 
C980: x43+x52-y43_52 <=1 
C981: x43+x53-y43_53 <=1 
C982: x43+x54 <=1 
C983: x43+x55 <=1 
C984: x43+x57 <=1 
C985: x43+x58 <=1 
C986: x43+x59-y43_59 <=1 
C987: x44+x45-y44_45 <=1 
C988: x44+x46 <=1 
C989: x44+x47-y44_47 <=1 
C990: x44+x49 <=1 
C991: x44+x52 <=1 
C992: x44+x53-y44_53 <=1 
C993: x44+x54 <=1 
C994: x44+x55 <=1 
C995: x44+x57-y44_57 <=1 
C996: x44+x58 <=1 
C997: x45+x46-y45_46 <=1 
C998: x45+x48 <=1 
C999: x45+x49-y45_49 <=1 
C1000: x45+x50 <=1 
C1001: x45+x53-y45_53 <=1 
C1002: x45+x55 <=1 
C1003: x45+x56 <=1 
C1004: x45+x57-y45_57 <=1 
C1005: x45+x59-y45_59 <=1 
C1006: x46+x47-y46_47 <=1 
C1007: x46+x48 <=1 
C1008: x46+x50-y46_50 <=1 
C1009: x46+x52 <=1 
C1010: x46+x54-y46_54 <=1 
C1011: x46+x55 <=1 
C1012: x46+x56-y46_56 <=1 
C1013: x46+x58-y46_58 <=1 
C1014: x47+x49 <=1 
C1015: x47+x50 <=1 
C1016: x47+x52-y47_52 <=1 
C1017: x47+x53 <=1 
C1018: x47+x55 <=1 
C1019: x47+x56 <=1 
C1020: x47+x58 <=1 
C1021: x47+x59 <=1 
C1022: x48+x51 <=1 
C1023: x48+x56-y48_56 <=1 
C1024: x48+x58-y48_58 <=1 
C1025: x48+x59-y48_59 <=1 
C1026: x49+x56 <=1 
C1027: x49+x57-y49_57 <=1 
C1028: x49+x58-y49_58 <=1 
C1029: x49+x59 <=1 
C1030: x50+x51 <=1 
C1031: x50+x52 <=1 
C1032: x50+x54-y50_54 <=1 
C1033: x50+x55-y50_55 <=1 
C1034: x50+x56 <=1 
C1035: x50+x57-y50_57 <=1 
C1036: x50+x59 <=1 
C1037: x51+x52 <=1 
C1038: x51+x54-y51_54 <=1 
C1039: x51+x55 <=1 
C1040: x51+x56-y51_56 <=1 
C1041: x51+x57 <=1 
C1042: x51+x58-y51_58 <=1 
C1043: x52+x53 <=1 
C1044: x52+x54-y52_54 <=1 
C1045: x52+x55 <=1 
C1046: x52+x57 <=1 
C1047: x52+x58-y52_58 <=1 
C1048: x53+x54 <=1 
C1049: x53+x55-y53_55 <=1 
C1050: x53+x58 <=1 
C1051: x53+x59-y53_59 <=1 
C1052: x55+x56-y55_56 <=1 
C1053: x55+x57-y55_57 <=1 
C1054: x55+x58 <=1 
C1055: x55+x59 <=1 
C1056: x56+x57-y56_57 <=1 
C1057: x57+x59 <=1 

binary
x0
x1
x2
x3
x4
x5
x6
x7
x8
x9
x10
x11
x12
x13
x14
x15
x16
x17
x18
x19
x20
x21
x22
x23
x24
x25
x26
x27
x28
x29
x30
x31
x32
x33
x34
x35
x36
x37
x38
x39
x40
x41
x42
x43
x44
x45
x46
x47
x48
x49
x50
x51
x52
x53
x54
x55
x56
x57
x58
x59
