problem_generation/data/GISP/train/er_n=60_m=1057_p=0.60_SET2_setparam=100.00_alpha=0.50_676.sol
objective value:                                 1174
x2                                                  1 	(obj:100)
x5                                                  1 	(obj:100)
x7                                                  1 	(obj:100)
x14                                                 1 	(obj:100)
x15                                                 1 	(obj:100)
x21                                                 1 	(obj:100)
x29                                                 1 	(obj:100)
x39                                                 1 	(obj:100)
x49                                                 1 	(obj:100)
x50                                                 1 	(obj:100)
x54                                                 1 	(obj:100)
x57                                                 1 	(obj:100)
y29_50                                              1 	(obj:-1)
y29_54                                              1 	(obj:-1)
y2_49                                               1 	(obj:-1)
y5_50                                               1 	(obj:-1)
y2_21                                               1 	(obj:-1)
y50_57                                              1 	(obj:-1)
y2_7                                                1 	(obj:-1)
y5_21                                               1 	(obj:-1)
y15_57                                              1 	(obj:-1)
y7_39                                               1 	(obj:-1)
y7_57                                               1 	(obj:-1)
y15_29                                              1 	(obj:-1)
y14_50                                              1 	(obj:-1)
y2_57                                               1 	(obj:-1)
y14_21                                              1 	(obj:-1)
y2_15                                               1 	(obj:-1)
y5_29                                               1 	(obj:-1)
y39_49                                              1 	(obj:-1)
y50_54                                              1 	(obj:-1)
y49_57                                              1 	(obj:-1)
y15_50                                              1 	(obj:-1)
y15_54                                              1 	(obj:-1)
y7_50                                               1 	(obj:-1)
y14_57                                              1 	(obj:-1)
y15_49                                              1 	(obj:-1)
y14_29                                              1 	(obj:-1)
